Route #1: 1 26 28 20 27 39 40 1
Route #2: 1 5 31 8 17 21 41 13 1
Route #3: 1 36 25 3 38 10 22 19 4 1
Route #4: 1 7 35 34 12 29 18 15 2 1
Route #5: 1 6 16 32 23 14 9 1
Route #6: 1 30 11 24 37 33 1
cost: 877
